70 5418656
1 11 7 67 5 9 21 12 59 10 26 38 13 60 15 16 2 48 18 20 50 31 35 24 25 17 27 28 19 30 54 32 68 34 40 8 37 36 39 58 41 42 43 44 45 33 47 6 49 29 51 52 53 4 55 56 57 14 46 3 61 62 63 23 65 66 22 64 69 70 
